language ESSENCE' 1.0
$ minion Nodes: 1
$ minion TotalTime: 0.00095
$ Savile Row TotalTime: 0.34
letting pain_tuple1_tuple1_tuple1_tuple2 be [[4, 5, 6], 
[5, 6, 4]]
letting pain_tuple1_tuple1_tuple1_tuple1 be [[1, 2, 3], 
[3, 1, 2]]
